c  quinn.cnf
c
p cnf 16 18
  1    2  0a
 -2   -4  0a
  3    4  0a
 -4   -5  0a
  5   -6  0a
  6   -7  0a
  6    7  0a
  7  -16  0a
  8   -9  0a
 -8  -14  0a
  9   10  0a
  9  -10  0a
-10  -11  0a
 10   12  0a
 11   12  0a
 13   14  0a
 14  -15  0a
 15   16  0a